c 120_4_checker_6cl.cnf
c
c field = 120
c formula set type = 4_checker_6cl
c
p cnf 6 10
118 
148 
178 
208 
-88 
-268 
119 
149 
179 
209 
-89 
-269 
148 
178 
208 
268 
-118 
-298 
149 
179 
209 
269 
-119 
-299 
178 
208 
268 
298 
-148 
-328 
179 
209 
269 
299 
-149 
-329 
208 
268 
298 
328 
-178 
-358 
209 
269 
299 
329 
-179 
-359 
268 
298 
328 
358 
-208 
-388 
269 
299 
329 
359 
-209 
-389 
